p cnf 165 920
57 80 0
66 75 96 0
68 87 102 120 0
63 124 0
60 69 85 89 91 0
93 95 0
98 134 0
38 70 103 0
139 141 0
59 64 83 107 108 144 0
32 78 114 0
54 81 0
50 53 74 152 154 0
43 44 47 49 0
42 157 0
52 55 73 92 0
40 71 0
35 37 62 0
34 58 0
31 110 112 0
113 116 0
67 97 117 0
45 119 0
121 122 123 0
125 126 127 0
94 128 129 0
99 130 0
72 131 132 135 0
105 136 138 140 142 0
65 106 109 143 0
33 84 111 145 0
115 146 147 148 0
82 149 150 151 0
51 77 118 153 155 0
156 158 159 0
61 86 160 0
56 161 0
101 162 163 164 0
104 133 165 0
36 39 41 137 0
-76 -98 0
-49 -98 0
-49 -76 0
-37 -42 0
-42 -58 0
-37 -58 0
-84 -149 0
-51 -84 0
-51 -149 0
-30 -165 0
-30 -41 0
-41 -165 0
-42 -98 0
-30 -84 0
-37 -76 0
-76 -149 0
-76 -165 0
-37 -149 0
-37 -165 0
-149 -165 0
-49 -58 0
-49 -51 0
-41 -49 0
-51 -58 0
-41 -58 0
-41 -51 0
-29 -64 0
-47 -64 0
-29 -47 0
-35 -55 0
-34 -55 0
-34 -35 0
-28 -125 0
-28 -88 0
-88 -125 0
-82 -131 0
-131 -153 0
-82 -153 0
-28 -131 0
-55 -64 0
-29 -35 0
-29 -125 0
-29 -82 0
-35 -125 0
-35 -82 0
-82 -125 0
-34 -47 0
-47 -88 0
-47 -153 0
-34 -88 0
-34 -153 0
-88 -153 0
-27 -75 0
-27 -85 0
-27 -93 0
-75 -85 0
-75 -93 0
-85 -93 0
-70 -139 0
-53 -70 0
-44 -70 0
-53 -139 0
-44 -139 0
-44 -53 0
-26 -113 0
-113 -121 0
-25 -113 0
-90 -113 0
-26 -121 0
-25 -26 0
-26 -90 0
-25 -121 0
-90 -121 0
-25 -90 0
-99 -132 0
-99 -145 0
-99 -146 0
-99 -155 0
-132 -145 0
-132 -146 0
-132 -155 0
-145 -146 0
-145 -155 0
-146 -155 0
-24 -156 0
-23 -24 0
-24 -162 0
-24 -39 0
-23 -156 0
-156 -162 0
-39 -156 0
-23 -162 0
-23 -39 0
-39 -162 0
-27 -70 0
-27 -113 0
-27 -99 0
-24 -27 0
-70 -113 0
-70 -99 0
-24 -70 0
-99 -113 0
-24 -113 0
-24 -99 0
-75 -139 0
-26 -75 0
-75 -132 0
-75 -156 0
-26 -139 0
-132 -139 0
-139 -156 0
-26 -132 0
-26 -156 0
-132 -156 0
-121 -145 0
-23 -121 0
-23 -145 0
-53 -85 0
-25 -85 0
-85 -146 0
-85 -162 0
-25 -53 0
-53 -146 0
-53 -162 0
-25 -146 0
-25 -162 0
-146 -162 0
-44 -93 0
-90 -93 0
-93 -155 0
-39 -93 0
-44 -90 0
-44 -155 0
-39 -44 0
-90 -155 0
-39 -90 0
-39 -155 0
-22 -66 0
-22 -87 0
-21 -22 0
-22 -60 0
-20 -22 0
-66 -87 0
-21 -66 0
-60 -66 0
-20 -66 0
-21 -87 0
-60 -87 0
-20 -87 0
-21 -60 0
-20 -21 0
-20 -60 0
-103 -141 0
-103 -107 0
-32 -103 0
-74 -103 0
-19 -103 0
-107 -141 0
-32 -141 0
-74 -141 0
-19 -141 0
-32 -107 0
-74 -107 0
-19 -107 0
-32 -74 0
-19 -32 0
-19 -74 0
-17 -18 0
-18 -92 0
-16 -18 0
-18 -71 0
-18 -62 0
-17 -92 0
-16 -17 0
-17 -71 0
-17 -62 0
-16 -92 0
-71 -92 0
-62 -92 0
-16 -71 0
-16 -62 0
-62 -71 0
-79 -116 0
-116 -117 0
-45 -116 0
-15 -116 0
-116 -126 0
-79 -117 0
-45 -79 0
-15 -79 0
-79 -126 0
-45 -117 0
-15 -117 0
-117 -126 0
-15 -45 0
-45 -126 0
-15 -126 0
-130 -135 0
-130 -136 0
-65 -130 0
-115 -130 0
-130 -150 0
-135 -136 0
-65 -135 0
-115 -135 0
-135 -150 0
-65 -136 0
-115 -136 0
-136 -150 0
-65 -115 0
-65 -150 0
-115 -150 0
-13 -158 0
-13 -160 0
-13 -56 0
-13 -101 0
-13 -133 0
-158 -160 0
-56 -158 0
-101 -158 0
-133 -158 0
-56 -160 0
-101 -160 0
-133 -160 0
-56 -101 0
-56 -133 0
-101 -133 0
-22 -103 0
-18 -22 0
-22 -116 0
-22 -130 0
-13 -22 0
-18 -103 0
-103 -116 0
-103 -130 0
-13 -103 0
-18 -116 0
-18 -130 0
-13 -18 0
-116 -130 0
-13 -116 0
-13 -130 0
-66 -141 0
-17 -66 0
-66 -79 0
-66 -135 0
-66 -158 0
-17 -141 0
-79 -141 0
-135 -141 0
-141 -158 0
-17 -79 0
-17 -135 0
-17 -158 0
-79 -135 0
-79 -158 0
-135 -158 0
-87 -107 0
-87 -92 0
-87 -117 0
-87 -136 0
-87 -160 0
-92 -107 0
-107 -117 0
-107 -136 0
-107 -160 0
-92 -117 0
-92 -136 0
-92 -160 0
-117 -136 0
-117 -160 0
-136 -160 0
-21 -32 0
-16 -21 0
-21 -45 0
-21 -65 0
-21 -56 0
-16 -32 0
-32 -45 0
-32 -65 0
-32 -56 0
-16 -45 0
-16 -65 0
-16 -56 0
-45 -65 0
-45 -56 0
-56 -65 0
-60 -74 0
-60 -71 0
-15 -60 0
-60 -115 0
-60 -101 0
-71 -74 0
-15 -74 0
-74 -115 0
-74 -101 0
-15 -71 0
-71 -115 0
-71 -101 0
-15 -115 0
-15 -101 0
-101 -115 0
-19 -20 0
-20 -62 0
-20 -126 0
-20 -150 0
-20 -133 0
-19 -62 0
-19 -126 0
-19 -150 0
-19 -133 0
-62 -126 0
-62 -150 0
-62 -133 0
-126 -150 0
-126 -133 0
-133 -150 0
-57 -96 0
-12 -31 0
-31 -119 0
-11 -31 0
-12 -119 0
-11 -12 0
-11 -119 0
-72 -94 0
-94 -143 0
-94 -118 0
-72 -143 0
-72 -118 0
-118 -143 0
-10 -159 0
-10 -161 0
-10 -137 0
-159 -161 0
-137 -159 0
-137 -161 0
-31 -57 0
-57 -94 0
-10 -57 0
-31 -94 0
-10 -31 0
-10 -94 0
-12 -96 0
-72 -96 0
-96 -159 0
-12 -72 0
-12 -159 0
-72 -159 0
-119 -143 0
-119 -161 0
-143 -161 0
-11 -118 0
-11 -137 0
-118 -137 0
-68 -124 0
-68 -89 0
-68 -95 0
-89 -124 0
-95 -124 0
-89 -95 0
-81 -108 0
-108 -152 0
-43 -108 0
-81 -152 0
-43 -81 0
-43 -152 0
-67 -110 0
-110 -122 0
-9 -110 0
-8 -110 0
-67 -122 0
-9 -67 0
-8 -67 0
-9 -122 0
-8 -122 0
-8 -9 0
-105 -128 0
-33 -128 0
-128 -147 0
-77 -128 0
-33 -105 0
-105 -147 0
-77 -105 0
-33 -147 0
-33 -77 0
-77 -147 0
-48 -86 0
-7 -48 0
-48 -163 0
-36 -48 0
-7 -86 0
-86 -163 0
-36 -86 0
-7 -163 0
-7 -36 0
-36 -163 0
-110 -128 0
-48 -110 0
-48 -128 0
-68 -108 0
-67 -68 0
-68 -105 0
-68 -86 0
-67 -108 0
-105 -108 0
-86 -108 0
-67 -105 0
-67 -86 0
-86 -105 0
-81 -124 0
-122 -124 0
-33 -124 0
-7 -124 0
-81 -122 0
-33 -81 0
-7 -81 0
-33 -122 0
-7 -122 0
-7 -33 0
-89 -152 0
-9 -89 0
-89 -147 0
-89 -163 0
-9 -152 0
-147 -152 0
-152 -163 0
-9 -147 0
-9 -163 0
-147 -163 0
-43 -95 0
-8 -95 0
-77 -95 0
-36 -95 0
-8 -43 0
-43 -77 0
-36 -43 0
-8 -77 0
-8 -36 0
-36 -77 0
-63 -120 0
-91 -120 0
-6 -120 0
-63 -91 0
-6 -63 0
-6 -91 0
-54 -144 0
-144 -154 0
-5 -144 0
-54 -154 0
-5 -54 0
-5 -154 0
-97 -112 0
-112 -123 0
-4 -112 0
-112 -127 0
-97 -123 0
-4 -97 0
-97 -127 0
-4 -123 0
-123 -127 0
-4 -127 0
-129 -138 0
-111 -129 0
-129 -148 0
-129 -151 0
-111 -138 0
-138 -148 0
-138 -151 0
-111 -148 0
-111 -151 0
-148 -151 0
-46 -61 0
-3 -46 0
-46 -164 0
-46 -104 0
-3 -61 0
-61 -164 0
-61 -104 0
-3 -164 0
-3 -104 0
-104 -164 0
-112 -129 0
-46 -112 0
-46 -129 0
-120 -144 0
-97 -120 0
-120 -138 0
-61 -120 0
-97 -144 0
-138 -144 0
-61 -144 0
-97 -138 0
-61 -97 0
-61 -138 0
-54 -63 0
-63 -123 0
-63 -111 0
-3 -63 0
-54 -123 0
-54 -111 0
-3 -54 0
-111 -123 0
-3 -123 0
-3 -111 0
-91 -154 0
-4 -91 0
-91 -148 0
-91 -164 0
-4 -154 0
-148 -154 0
-154 -164 0
-4 -148 0
-4 -164 0
-148 -164 0
-5 -6 0
-6 -127 0
-6 -151 0
-6 -104 0
-5 -127 0
-5 -151 0
-5 -104 0
-127 -151 0
-104 -127 0
-104 -151 0
-80 -102 0
-14 -80 0
-69 -80 0
-14 -102 0
-69 -102 0
-14 -69 0
-83 -134 0
-114 -134 0
-50 -134 0
-83 -114 0
-50 -83 0
-50 -114 0
-52 -157 0
-100 -157 0
-40 -157 0
-52 -100 0
-40 -52 0
-40 -100 0
-109 -140 0
-80 -134 0
-80 -157 0
-134 -157 0
-83 -102 0
-52 -102 0
-102 -140 0
-52 -83 0
-83 -140 0
-52 -140 0
-14 -114 0
-14 -100 0
-14 -109 0
-100 -114 0
-109 -114 0
-100 -109 0
-50 -69 0
-40 -69 0
-40 -50 0
-38 -59 0
-38 -78 0
-59 -78 0
-2 -73 0
-1 -2 0
-1 -73 0
-106 -142 0
-2 -38 0
-59 -73 0
-59 -142 0
-73 -142 0
-1 -78 0
-78 -106 0
-1 -106 0
-42 -98 0
-27 -75 0
-27 -70 0
-27 -139 0
-70 -75 0
-75 -139 0
-70 -139 0
-22 -66 0
-22 -103 0
-22 -141 0
-18 -22 0
-17 -22 0
-66 -103 0
-66 -141 0
-18 -66 0
-17 -66 0
-103 -141 0
-18 -103 0
-17 -103 0
-18 -141 0
-17 -141 0
-17 -18 0
-57 -96 0
-80 -134 0
-80 -157 0
-134 -157 0
-2 -38 0
-55 -64 0
-21 -87 0
-87 -107 0
-32 -87 0
-87 -92 0
-16 -87 0
-21 -107 0
-21 -32 0
-21 -92 0
-16 -21 0
-32 -107 0
-92 -107 0
-16 -107 0
-32 -92 0
-16 -32 0
-16 -92 0
-68 -124 0
-68 -108 0
-68 -81 0
-108 -124 0
-81 -124 0
-81 -108 0
-63 -120 0
-120 -144 0
-54 -120 0
-63 -144 0
-54 -63 0
-54 -144 0
-14 -102 0
-83 -102 0
-102 -114 0
-52 -102 0
-100 -102 0
-14 -83 0
-14 -114 0
-14 -52 0
-14 -100 0
-83 -114 0
-52 -83 0
-83 -100 0
-52 -114 0
-100 -114 0
-52 -100 0
-59 -78 0
-59 -73 0
-1 -59 0
-73 -78 0
-1 -78 0
-1 -73 0
-49 -76 0
-37 -76 0
-58 -76 0
-37 -49 0
-49 -58 0
-37 -58 0
-29 -47 0
-29 -35 0
-29 -34 0
-35 -47 0
-34 -47 0
-34 -35 0
-85 -93 0
-53 -85 0
-44 -85 0
-53 -93 0
-44 -93 0
-44 -53 0
-20 -60 0
-60 -74 0
-19 -60 0
-60 -71 0
-60 -62 0
-20 -74 0
-19 -20 0
-20 -71 0
-20 -62 0
-19 -74 0
-71 -74 0
-62 -74 0
-19 -71 0
-19 -62 0
-62 -71 0
-89 -95 0
-89 -152 0
-43 -89 0
-95 -152 0
-43 -95 0
-43 -152 0
-6 -91 0
-91 -154 0
-5 -91 0
-6 -154 0
-5 -6 0
-5 -154 0
-50 -69 0
-40 -69 0
-40 -50 0
-28 -131 0
-26 -113 0
-99 -113 0
-113 -132 0
-24 -113 0
-113 -156 0
-26 -99 0
-26 -132 0
-24 -26 0
-26 -156 0
-99 -132 0
-24 -99 0
-99 -156 0
-24 -132 0
-132 -156 0
-24 -156 0
-79 -116 0
-116 -130 0
-116 -135 0
-13 -116 0
-116 -158 0
-79 -130 0
-79 -135 0
-13 -79 0
-79 -158 0
-130 -135 0
-13 -130 0
-130 -158 0
-13 -135 0
-135 -158 0
-13 -158 0
-12 -31 0
-31 -94 0
-31 -72 0
-10 -31 0
-31 -159 0
-12 -94 0
-12 -72 0
-10 -12 0
-12 -159 0
-72 -94 0
-10 -94 0
-94 -159 0
-10 -72 0
-72 -159 0
-10 -159 0
-110 -128 0
-48 -110 0
-48 -128 0
-112 -129 0
-46 -112 0
-46 -129 0
-30 -84 0
-121 -145 0
-23 -121 0
-23 -145 0
-45 -117 0
-117 -136 0
-65 -117 0
-117 -160 0
-56 -117 0
-45 -136 0
-45 -65 0
-45 -160 0
-45 -56 0
-65 -136 0
-136 -160 0
-56 -136 0
-65 -160 0
-56 -65 0
-56 -160 0
-119 -143 0
-119 -161 0
-143 -161 0
-67 -122 0
-67 -105 0
-33 -67 0
-67 -86 0
-7 -67 0
-105 -122 0
-33 -122 0
-86 -122 0
-7 -122 0
-33 -105 0
-86 -105 0
-7 -105 0
-33 -86 0
-7 -33 0
-7 -86 0
-97 -123 0
-97 -138 0
-97 -111 0
-61 -97 0
-3 -97 0
-123 -138 0
-111 -123 0
-61 -123 0
-3 -123 0
-111 -138 0
-61 -138 0
-3 -138 0
-61 -111 0
-3 -111 0
-3 -61 0
-109 -140 0
-106 -142 0
-51 -149 0
-149 -165 0
-41 -149 0
-51 -165 0
-41 -51 0
-41 -165 0
-88 -125 0
-82 -125 0
-125 -153 0
-82 -88 0
-88 -153 0
-82 -153 0
-25 -90 0
-25 -146 0
-25 -155 0
-25 -162 0
-25 -39 0
-90 -146 0
-90 -155 0
-90 -162 0
-39 -90 0
-146 -155 0
-146 -162 0
-39 -146 0
-155 -162 0
-39 -155 0
-39 -162 0
-15 -126 0
-15 -115 0
-15 -150 0
-15 -101 0
-15 -133 0
-115 -126 0
-126 -150 0
-101 -126 0
-126 -133 0
-115 -150 0
-101 -115 0
-115 -133 0
-101 -150 0
-133 -150 0
-101 -133 0
-11 -118 0
-11 -137 0
-118 -137 0
-8 -9 0
-9 -147 0
-9 -77 0
-9 -163 0
-9 -36 0
-8 -147 0
-8 -77 0
-8 -163 0
-8 -36 0
-77 -147 0
-147 -163 0
-36 -147 0
-77 -163 0
-36 -77 0
-36 -163 0
-4 -127 0
-4 -148 0
-4 -151 0
-4 -164 0
-4 -104 0
-127 -148 0
-127 -151 0
-127 -164 0
-104 -127 0
-148 -151 0
-148 -164 0
-104 -148 0
-151 -164 0
-104 -151 0
-104 -164 0
